certificates/rado_a25_c20_N161.cnf
c Rad2 upper bound instance: x1 + 25*x2 - x3 = 20, interval [1,161]
p cnf 161 1134
1 6 0
-1 -6 0
1 2 31 0
-1 -2 -31 0
1 3 56 0
-1 -3 -56 0
1 4 81 0
-1 -4 -81 0
1 5 106 0
-1 -5 -106 0
1 6 131 0
-1 -6 -131 0
1 7 156 0
-1 -7 -156 0
1 2 7 0
-1 -2 -7 0
2 32 0
-2 -32 0
2 3 57 0
-2 -3 -57 0
2 4 82 0
-2 -4 -82 0
2 5 107 0
-2 -5 -107 0
2 6 132 0
-2 -6 -132 0
2 7 157 0
-2 -7 -157 0
1 3 8 0
-1 -3 -8 0
2 3 33 0
-2 -3 -33 0
3 58 0
-3 -58 0
3 4 83 0
-3 -4 -83 0
3 5 108 0
-3 -5 -108 0
3 6 133 0
-3 -6 -133 0
3 7 158 0
-3 -7 -158 0
1 4 9 0
-1 -4 -9 0
2 4 34 0
-2 -4 -34 0
3 4 59 0
-3 -4 -59 0
4 84 0
-4 -84 0
4 5 109 0
-4 -5 -109 0
4 6 134 0
-4 -6 -134 0
4 7 159 0
-4 -7 -159 0
1 5 10 0
-1 -5 -10 0
2 5 35 0
-2 -5 -35 0
3 5 60 0
-3 -5 -60 0
4 5 85 0
-4 -5 -85 0
5 110 0
-5 -110 0
5 6 135 0
-5 -6 -135 0
5 7 160 0
-5 -7 -160 0
1 6 11 0
-1 -6 -11 0
2 6 36 0
-2 -6 -36 0
3 6 61 0
-3 -6 -61 0
4 6 86 0
-4 -6 -86 0
5 6 111 0
-5 -6 -111 0
6 136 0
-6 -136 0
6 7 161 0
-6 -7 -161 0
1 7 12 0
-1 -7 -12 0
2 7 37 0
-2 -7 -37 0
3 7 62 0
-3 -7 -62 0
4 7 87 0
-4 -7 -87 0
5 7 112 0
-5 -7 -112 0
6 7 137 0
-6 -7 -137 0
1 8 13 0
-1 -8 -13 0
2 8 38 0
-2 -8 -38 0
3 8 63 0
-3 -8 -63 0
4 8 88 0
-4 -8 -88 0
5 8 113 0
-5 -8 -113 0
6 8 138 0
-6 -8 -138 0
1 9 14 0
-1 -9 -14 0
2 9 39 0
-2 -9 -39 0
3 9 64 0
-3 -9 -64 0
4 9 89 0
-4 -9 -89 0
5 9 114 0
-5 -9 -114 0
6 9 139 0
-6 -9 -139 0
1 10 15 0
-1 -10 -15 0
2 10 40 0
-2 -10 -40 0
3 10 65 0
-3 -10 -65 0
4 10 90 0
-4 -10 -90 0
5 10 115 0
-5 -10 -115 0
6 10 140 0
-6 -10 -140 0
1 11 16 0
-1 -11 -16 0
2 11 41 0
-2 -11 -41 0
3 11 66 0
-3 -11 -66 0
4 11 91 0
-4 -11 -91 0
5 11 116 0
-5 -11 -116 0
6 11 141 0
-6 -11 -141 0
1 12 17 0
-1 -12 -17 0
2 12 42 0
-2 -12 -42 0
3 12 67 0
-3 -12 -67 0
4 12 92 0
-4 -12 -92 0
5 12 117 0
-5 -12 -117 0
6 12 142 0
-6 -12 -142 0
1 13 18 0
-1 -13 -18 0
2 13 43 0
-2 -13 -43 0
3 13 68 0
-3 -13 -68 0
4 13 93 0
-4 -13 -93 0
5 13 118 0
-5 -13 -118 0
6 13 143 0
-6 -13 -143 0
1 14 19 0
-1 -14 -19 0
2 14 44 0
-2 -14 -44 0
3 14 69 0
-3 -14 -69 0
4 14 94 0
-4 -14 -94 0
5 14 119 0
-5 -14 -119 0
6 14 144 0
-6 -14 -144 0
1 15 20 0
-1 -15 -20 0
2 15 45 0
-2 -15 -45 0
3 15 70 0
-3 -15 -70 0
4 15 95 0
-4 -15 -95 0
5 15 120 0
-5 -15 -120 0
6 15 145 0
-6 -15 -145 0
1 16 21 0
-1 -16 -21 0
2 16 46 0
-2 -16 -46 0
3 16 71 0
-3 -16 -71 0
4 16 96 0
-4 -16 -96 0
5 16 121 0
-5 -16 -121 0
6 16 146 0
-6 -16 -146 0
1 17 22 0
-1 -17 -22 0
2 17 47 0
-2 -17 -47 0
3 17 72 0
-3 -17 -72 0
4 17 97 0
-4 -17 -97 0
5 17 122 0
-5 -17 -122 0
6 17 147 0
-6 -17 -147 0
1 18 23 0
-1 -18 -23 0
2 18 48 0
-2 -18 -48 0
3 18 73 0
-3 -18 -73 0
4 18 98 0
-4 -18 -98 0
5 18 123 0
-5 -18 -123 0
6 18 148 0
-6 -18 -148 0
1 19 24 0
-1 -19 -24 0
2 19 49 0
-2 -19 -49 0
3 19 74 0
-3 -19 -74 0
4 19 99 0
-4 -19 -99 0
5 19 124 0
-5 -19 -124 0
6 19 149 0
-6 -19 -149 0
1 20 25 0
-1 -20 -25 0
2 20 50 0
-2 -20 -50 0
3 20 75 0
-3 -20 -75 0
4 20 100 0
-4 -20 -100 0
5 20 125 0
-5 -20 -125 0
6 20 150 0
-6 -20 -150 0
1 21 26 0
-1 -21 -26 0
2 21 51 0
-2 -21 -51 0
3 21 76 0
-3 -21 -76 0
4 21 101 0
-4 -21 -101 0
5 21 126 0
-5 -21 -126 0
6 21 151 0
-6 -21 -151 0
1 22 27 0
-1 -22 -27 0
2 22 52 0
-2 -22 -52 0
3 22 77 0
-3 -22 -77 0
4 22 102 0
-4 -22 -102 0
5 22 127 0
-5 -22 -127 0
6 22 152 0
-6 -22 -152 0
1 23 28 0
-1 -23 -28 0
2 23 53 0
-2 -23 -53 0
3 23 78 0
-3 -23 -78 0
4 23 103 0
-4 -23 -103 0
5 23 128 0
-5 -23 -128 0
6 23 153 0
-6 -23 -153 0
1 24 29 0
-1 -24 -29 0
2 24 54 0
-2 -24 -54 0
3 24 79 0
-3 -24 -79 0
4 24 104 0
-4 -24 -104 0
5 24 129 0
-5 -24 -129 0
6 24 154 0
-6 -24 -154 0
1 25 30 0
-1 -25 -30 0
2 25 55 0
-2 -25 -55 0
3 25 80 0
-3 -25 -80 0
4 25 105 0
-4 -25 -105 0
5 25 130 0
-5 -25 -130 0
6 25 155 0
-6 -25 -155 0
1 26 31 0
-1 -26 -31 0
2 26 56 0
-2 -26 -56 0
3 26 81 0
-3 -26 -81 0
4 26 106 0
-4 -26 -106 0
5 26 131 0
-5 -26 -131 0
6 26 156 0
-6 -26 -156 0
1 27 32 0
-1 -27 -32 0
2 27 57 0
-2 -27 -57 0
3 27 82 0
-3 -27 -82 0
4 27 107 0
-4 -27 -107 0
5 27 132 0
-5 -27 -132 0
6 27 157 0
-6 -27 -157 0
1 28 33 0
-1 -28 -33 0
2 28 58 0
-2 -28 -58 0
3 28 83 0
-3 -28 -83 0
4 28 108 0
-4 -28 -108 0
5 28 133 0
-5 -28 -133 0
6 28 158 0
-6 -28 -158 0
1 29 34 0
-1 -29 -34 0
2 29 59 0
-2 -29 -59 0
3 29 84 0
-3 -29 -84 0
4 29 109 0
-4 -29 -109 0
5 29 134 0
-5 -29 -134 0
6 29 159 0
-6 -29 -159 0
1 30 35 0
-1 -30 -35 0
2 30 60 0
-2 -30 -60 0
3 30 85 0
-3 -30 -85 0
4 30 110 0
-4 -30 -110 0
5 30 135 0
-5 -30 -135 0
6 30 160 0
-6 -30 -160 0
1 31 36 0
-1 -31 -36 0
2 31 61 0
-2 -31 -61 0
3 31 86 0
-3 -31 -86 0
4 31 111 0
-4 -31 -111 0
5 31 136 0
-5 -31 -136 0
6 31 161 0
-6 -31 -161 0
1 32 37 0
-1 -32 -37 0
2 32 62 0
-2 -32 -62 0
3 32 87 0
-3 -32 -87 0
4 32 112 0
-4 -32 -112 0
5 32 137 0
-5 -32 -137 0
1 33 38 0
-1 -33 -38 0
2 33 63 0
-2 -33 -63 0
3 33 88 0
-3 -33 -88 0
4 33 113 0
-4 -33 -113 0
5 33 138 0
-5 -33 -138 0
1 34 39 0
-1 -34 -39 0
2 34 64 0
-2 -34 -64 0
3 34 89 0
-3 -34 -89 0
4 34 114 0
-4 -34 -114 0
5 34 139 0
-5 -34 -139 0
1 35 40 0
-1 -35 -40 0
2 35 65 0
-2 -35 -65 0
3 35 90 0
-3 -35 -90 0
4 35 115 0
-4 -35 -115 0
5 35 140 0
-5 -35 -140 0
1 36 41 0
-1 -36 -41 0
2 36 66 0
-2 -36 -66 0
3 36 91 0
-3 -36 -91 0
4 36 116 0
-4 -36 -116 0
5 36 141 0
-5 -36 -141 0
1 37 42 0
-1 -37 -42 0
2 37 67 0
-2 -37 -67 0
3 37 92 0
-3 -37 -92 0
4 37 117 0
-4 -37 -117 0
5 37 142 0
-5 -37 -142 0
1 38 43 0
-1 -38 -43 0
2 38 68 0
-2 -38 -68 0
3 38 93 0
-3 -38 -93 0
4 38 118 0
-4 -38 -118 0
5 38 143 0
-5 -38 -143 0
1 39 44 0
-1 -39 -44 0
2 39 69 0
-2 -39 -69 0
3 39 94 0
-3 -39 -94 0
4 39 119 0
-4 -39 -119 0
5 39 144 0
-5 -39 -144 0
1 40 45 0
-1 -40 -45 0
2 40 70 0
-2 -40 -70 0
3 40 95 0
-3 -40 -95 0
4 40 120 0
-4 -40 -120 0
5 40 145 0
-5 -40 -145 0
1 41 46 0
-1 -41 -46 0
2 41 71 0
-2 -41 -71 0
3 41 96 0
-3 -41 -96 0
4 41 121 0
-4 -41 -121 0
5 41 146 0
-5 -41 -146 0
1 42 47 0
-1 -42 -47 0
2 42 72 0
-2 -42 -72 0
3 42 97 0
-3 -42 -97 0
4 42 122 0
-4 -42 -122 0
5 42 147 0
-5 -42 -147 0
1 43 48 0
-1 -43 -48 0
2 43 73 0
-2 -43 -73 0
3 43 98 0
-3 -43 -98 0
4 43 123 0
-4 -43 -123 0
5 43 148 0
-5 -43 -148 0
1 44 49 0
-1 -44 -49 0
2 44 74 0
-2 -44 -74 0
3 44 99 0
-3 -44 -99 0
4 44 124 0
-4 -44 -124 0
5 44 149 0
-5 -44 -149 0
1 45 50 0
-1 -45 -50 0
2 45 75 0
-2 -45 -75 0
3 45 100 0
-3 -45 -100 0
4 45 125 0
-4 -45 -125 0
5 45 150 0
-5 -45 -150 0
1 46 51 0
-1 -46 -51 0
2 46 76 0
-2 -46 -76 0
3 46 101 0
-3 -46 -101 0
4 46 126 0
-4 -46 -126 0
5 46 151 0
-5 -46 -151 0
1 47 52 0
-1 -47 -52 0
2 47 77 0
-2 -47 -77 0
3 47 102 0
-3 -47 -102 0
4 47 127 0
-4 -47 -127 0
5 47 152 0
-5 -47 -152 0
1 48 53 0
-1 -48 -53 0
2 48 78 0
-2 -48 -78 0
3 48 103 0
-3 -48 -103 0
4 48 128 0
-4 -48 -128 0
5 48 153 0
-5 -48 -153 0
1 49 54 0
-1 -49 -54 0
2 49 79 0
-2 -49 -79 0
3 49 104 0
-3 -49 -104 0
4 49 129 0
-4 -49 -129 0
5 49 154 0
-5 -49 -154 0
1 50 55 0
-1 -50 -55 0
2 50 80 0
-2 -50 -80 0
3 50 105 0
-3 -50 -105 0
4 50 130 0
-4 -50 -130 0
5 50 155 0
-5 -50 -155 0
1 51 56 0
-1 -51 -56 0
2 51 81 0
-2 -51 -81 0
3 51 106 0
-3 -51 -106 0
4 51 131 0
-4 -51 -131 0
5 51 156 0
-5 -51 -156 0
1 52 57 0
-1 -52 -57 0
2 52 82 0
-2 -52 -82 0
3 52 107 0
-3 -52 -107 0
4 52 132 0
-4 -52 -132 0
5 52 157 0
-5 -52 -157 0
1 53 58 0
-1 -53 -58 0
2 53 83 0
-2 -53 -83 0
3 53 108 0
-3 -53 -108 0
4 53 133 0
-4 -53 -133 0
5 53 158 0
-5 -53 -158 0
1 54 59 0
-1 -54 -59 0
2 54 84 0
-2 -54 -84 0
3 54 109 0
-3 -54 -109 0
4 54 134 0
-4 -54 -134 0
5 54 159 0
-5 -54 -159 0
1 55 60 0
-1 -55 -60 0
2 55 85 0
-2 -55 -85 0
3 55 110 0
-3 -55 -110 0
4 55 135 0
-4 -55 -135 0
5 55 160 0
-5 -55 -160 0
1 56 61 0
-1 -56 -61 0
2 56 86 0
-2 -56 -86 0
3 56 111 0
-3 -56 -111 0
4 56 136 0
-4 -56 -136 0
5 56 161 0
-5 -56 -161 0
1 57 62 0
-1 -57 -62 0
2 57 87 0
-2 -57 -87 0
3 57 112 0
-3 -57 -112 0
4 57 137 0
-4 -57 -137 0
1 58 63 0
-1 -58 -63 0
2 58 88 0
-2 -58 -88 0
3 58 113 0
-3 -58 -113 0
4 58 138 0
-4 -58 -138 0
1 59 64 0
-1 -59 -64 0
2 59 89 0
-2 -59 -89 0
3 59 114 0
-3 -59 -114 0
4 59 139 0
-4 -59 -139 0
1 60 65 0
-1 -60 -65 0
2 60 90 0
-2 -60 -90 0
3 60 115 0
-3 -60 -115 0
4 60 140 0
-4 -60 -140 0
1 61 66 0
-1 -61 -66 0
2 61 91 0
-2 -61 -91 0
3 61 116 0
-3 -61 -116 0
4 61 141 0
-4 -61 -141 0
1 62 67 0
-1 -62 -67 0
2 62 92 0
-2 -62 -92 0
3 62 117 0
-3 -62 -117 0
4 62 142 0
-4 -62 -142 0
1 63 68 0
-1 -63 -68 0
2 63 93 0
-2 -63 -93 0
3 63 118 0
-3 -63 -118 0
4 63 143 0
-4 -63 -143 0
1 64 69 0
-1 -64 -69 0
2 64 94 0
-2 -64 -94 0
3 64 119 0
-3 -64 -119 0
4 64 144 0
-4 -64 -144 0
1 65 70 0
-1 -65 -70 0
2 65 95 0
-2 -65 -95 0
3 65 120 0
-3 -65 -120 0
4 65 145 0
-4 -65 -145 0
1 66 71 0
-1 -66 -71 0
2 66 96 0
-2 -66 -96 0
3 66 121 0
-3 -66 -121 0
4 66 146 0
-4 -66 -146 0
1 67 72 0
-1 -67 -72 0
2 67 97 0
-2 -67 -97 0
3 67 122 0
-3 -67 -122 0
4 67 147 0
-4 -67 -147 0
1 68 73 0
-1 -68 -73 0
2 68 98 0
-2 -68 -98 0
3 68 123 0
-3 -68 -123 0
4 68 148 0
-4 -68 -148 0
1 69 74 0
-1 -69 -74 0
2 69 99 0
-2 -69 -99 0
3 69 124 0
-3 -69 -124 0
4 69 149 0
-4 -69 -149 0
1 70 75 0
-1 -70 -75 0
2 70 100 0
-2 -70 -100 0
3 70 125 0
-3 -70 -125 0
4 70 150 0
-4 -70 -150 0
1 71 76 0
-1 -71 -76 0
2 71 101 0
-2 -71 -101 0
3 71 126 0
-3 -71 -126 0
4 71 151 0
-4 -71 -151 0
1 72 77 0
-1 -72 -77 0
2 72 102 0
-2 -72 -102 0
3 72 127 0
-3 -72 -127 0
4 72 152 0
-4 -72 -152 0
1 73 78 0
-1 -73 -78 0
2 73 103 0
-2 -73 -103 0
3 73 128 0
-3 -73 -128 0
4 73 153 0
-4 -73 -153 0
1 74 79 0
-1 -74 -79 0
2 74 104 0
-2 -74 -104 0
3 74 129 0
-3 -74 -129 0
4 74 154 0
-4 -74 -154 0
1 75 80 0
-1 -75 -80 0
2 75 105 0
-2 -75 -105 0
3 75 130 0
-3 -75 -130 0
4 75 155 0
-4 -75 -155 0
1 76 81 0
-1 -76 -81 0
2 76 106 0
-2 -76 -106 0
3 76 131 0
-3 -76 -131 0
4 76 156 0
-4 -76 -156 0
1 77 82 0
-1 -77 -82 0
2 77 107 0
-2 -77 -107 0
3 77 132 0
-3 -77 -132 0
4 77 157 0
-4 -77 -157 0
1 78 83 0
-1 -78 -83 0
2 78 108 0
-2 -78 -108 0
3 78 133 0
-3 -78 -133 0
4 78 158 0
-4 -78 -158 0
1 79 84 0
-1 -79 -84 0
2 79 109 0
-2 -79 -109 0
3 79 134 0
-3 -79 -134 0
4 79 159 0
-4 -79 -159 0
1 80 85 0
-1 -80 -85 0
2 80 110 0
-2 -80 -110 0
3 80 135 0
-3 -80 -135 0
4 80 160 0
-4 -80 -160 0
1 81 86 0
-1 -81 -86 0
2 81 111 0
-2 -81 -111 0
3 81 136 0
-3 -81 -136 0
4 81 161 0
-4 -81 -161 0
1 82 87 0
-1 -82 -87 0
2 82 112 0
-2 -82 -112 0
3 82 137 0
-3 -82 -137 0
1 83 88 0
-1 -83 -88 0
2 83 113 0
-2 -83 -113 0
3 83 138 0
-3 -83 -138 0
1 84 89 0
-1 -84 -89 0
2 84 114 0
-2 -84 -114 0
3 84 139 0
-3 -84 -139 0
1 85 90 0
-1 -85 -90 0
2 85 115 0
-2 -85 -115 0
3 85 140 0
-3 -85 -140 0
1 86 91 0
-1 -86 -91 0
2 86 116 0
-2 -86 -116 0
3 86 141 0
-3 -86 -141 0
1 87 92 0
-1 -87 -92 0
2 87 117 0
-2 -87 -117 0
3 87 142 0
-3 -87 -142 0
1 88 93 0
-1 -88 -93 0
2 88 118 0
-2 -88 -118 0
3 88 143 0
-3 -88 -143 0
1 89 94 0
-1 -89 -94 0
2 89 119 0
-2 -89 -119 0
3 89 144 0
-3 -89 -144 0
1 90 95 0
-1 -90 -95 0
2 90 120 0
-2 -90 -120 0
3 90 145 0
-3 -90 -145 0
1 91 96 0
-1 -91 -96 0
2 91 121 0
-2 -91 -121 0
3 91 146 0
-3 -91 -146 0
1 92 97 0
-1 -92 -97 0
2 92 122 0
-2 -92 -122 0
3 92 147 0
-3 -92 -147 0
1 93 98 0
-1 -93 -98 0
2 93 123 0
-2 -93 -123 0
3 93 148 0
-3 -93 -148 0
1 94 99 0
-1 -94 -99 0
2 94 124 0
-2 -94 -124 0
3 94 149 0
-3 -94 -149 0
1 95 100 0
-1 -95 -100 0
2 95 125 0
-2 -95 -125 0
3 95 150 0
-3 -95 -150 0
1 96 101 0
-1 -96 -101 0
2 96 126 0
-2 -96 -126 0
3 96 151 0
-3 -96 -151 0
1 97 102 0
-1 -97 -102 0
2 97 127 0
-2 -97 -127 0
3 97 152 0
-3 -97 -152 0
1 98 103 0
-1 -98 -103 0
2 98 128 0
-2 -98 -128 0
3 98 153 0
-3 -98 -153 0
1 99 104 0
-1 -99 -104 0
2 99 129 0
-2 -99 -129 0
3 99 154 0
-3 -99 -154 0
1 100 105 0
-1 -100 -105 0
2 100 130 0
-2 -100 -130 0
3 100 155 0
-3 -100 -155 0
1 101 106 0
-1 -101 -106 0
2 101 131 0
-2 -101 -131 0
3 101 156 0
-3 -101 -156 0
1 102 107 0
-1 -102 -107 0
2 102 132 0
-2 -102 -132 0
3 102 157 0
-3 -102 -157 0
1 103 108 0
-1 -103 -108 0
2 103 133 0
-2 -103 -133 0
3 103 158 0
-3 -103 -158 0
1 104 109 0
-1 -104 -109 0
2 104 134 0
-2 -104 -134 0
3 104 159 0
-3 -104 -159 0
1 105 110 0
-1 -105 -110 0
2 105 135 0
-2 -105 -135 0
3 105 160 0
-3 -105 -160 0
1 106 111 0
-1 -106 -111 0
2 106 136 0
-2 -106 -136 0
3 106 161 0
-3 -106 -161 0
1 107 112 0
-1 -107 -112 0
2 107 137 0
-2 -107 -137 0
1 108 113 0
-1 -108 -113 0
2 108 138 0
-2 -108 -138 0
1 109 114 0
-1 -109 -114 0
2 109 139 0
-2 -109 -139 0
1 110 115 0
-1 -110 -115 0
2 110 140 0
-2 -110 -140 0
1 111 116 0
-1 -111 -116 0
2 111 141 0
-2 -111 -141 0
1 112 117 0
-1 -112 -117 0
2 112 142 0
-2 -112 -142 0
1 113 118 0
-1 -113 -118 0
2 113 143 0
-2 -113 -143 0
1 114 119 0
-1 -114 -119 0
2 114 144 0
-2 -114 -144 0
1 115 120 0
-1 -115 -120 0
2 115 145 0
-2 -115 -145 0
1 116 121 0
-1 -116 -121 0
2 116 146 0
-2 -116 -146 0
1 117 122 0
-1 -117 -122 0
2 117 147 0
-2 -117 -147 0
1 118 123 0
-1 -118 -123 0
2 118 148 0
-2 -118 -148 0
1 119 124 0
-1 -119 -124 0
2 119 149 0
-2 -119 -149 0
1 120 125 0
-1 -120 -125 0
2 120 150 0
-2 -120 -150 0
1 121 126 0
-1 -121 -126 0
2 121 151 0
-2 -121 -151 0
1 122 127 0
-1 -122 -127 0
2 122 152 0
-2 -122 -152 0
1 123 128 0
-1 -123 -128 0
2 123 153 0
-2 -123 -153 0
1 124 129 0
-1 -124 -129 0
2 124 154 0
-2 -124 -154 0
1 125 130 0
-1 -125 -130 0
2 125 155 0
-2 -125 -155 0
1 126 131 0
-1 -126 -131 0
2 126 156 0
-2 -126 -156 0
1 127 132 0
-1 -127 -132 0
2 127 157 0
-2 -127 -157 0
1 128 133 0
-1 -128 -133 0
2 128 158 0
-2 -128 -158 0
1 129 134 0
-1 -129 -134 0
2 129 159 0
-2 -129 -159 0
1 130 135 0
-1 -130 -135 0
2 130 160 0
-2 -130 -160 0
1 131 136 0
-1 -131 -136 0
2 131 161 0
-2 -131 -161 0
1 132 137 0
-1 -132 -137 0
1 133 138 0
-1 -133 -138 0
1 134 139 0
-1 -134 -139 0
1 135 140 0
-1 -135 -140 0
1 136 141 0
-1 -136 -141 0
1 137 142 0
-1 -137 -142 0
1 138 143 0
-1 -138 -143 0
1 139 144 0
-1 -139 -144 0
1 140 145 0
-1 -140 -145 0
1 141 146 0
-1 -141 -146 0
1 142 147 0
-1 -142 -147 0
1 143 148 0
-1 -143 -148 0
1 144 149 0
-1 -144 -149 0
1 145 150 0
-1 -145 -150 0
1 146 151 0
-1 -146 -151 0
1 147 152 0
-1 -147 -152 0
1 148 153 0
-1 -148 -153 0
1 149 154 0
-1 -149 -154 0
1 150 155 0
-1 -150 -155 0
1 151 156 0
-1 -151 -156 0
1 152 157 0
-1 -152 -157 0
1 153 158 0
-1 -153 -158 0
1 154 159 0
-1 -154 -159 0
1 155 160 0
-1 -155 -160 0
1 156 161 0
-1 -156 -161 0
