certificates/rado_a25_c20_N161.drat
-156 -161 0
d -156 -1 -161 0
26 31 156 0
-6 -161 0
-161 0
156 0
6 0
-1 0
-136 0
-26 0
141 0
131 0
31 0
21 0
-11 0
-151 0
16 0
146 0
0
